# SCIP version 3.0.2.1

detectors/hrcgpartition/maxcallround = 0
detectors/hcgpartition/maxcallround = 0
detectors/hrgpartition/maxcallround = 0
detectors/stairheur/maxcallround = 1
detectors/isomorph/maxcallround = 0
limits/time = 10
